Minimize
  obj: x0 + x1 + x2 + x3 + x4 + x5

Subject To
  c0: x0 + x3 = 12
  c1: x2 + x3 + x4 + x5 = 42
  c2: x0 + x1 + x2 = 20
  c3: x0 + x2 = 11
  c4: x0 + x4 = 12

Bounds
  x0 >= 0
  x1 >= 0
  x2 >= 0
  x3 >= 0
  x4 >= 0
  x5 >= 0

Generals
  x0 x1 x2 x3 x4 x5

End
